Cu1-In1-Se2 'I -4 2 d'  #122
1.0
       11.5648002625         0.0000000000         0.0000000000
        0.0000000000        11.5648002625         0.0000000000
        0.0000000000         0.0000000000        23.2383995056
   Cu   In   Se
   32   32   64
Direct
     0.000000000         0.250000000         0.125000000
     0.000000000         0.250000000         0.625000000
     0.000000000         0.750000000         0.125000000
     0.000000000         0.750000000         0.625000000
     0.500000000         0.250000000         0.125000000
     0.500000000         0.250000000         0.625000000
     0.500000000         0.750000000         0.125000000
     0.500000000         0.750000000         0.625000000
     0.000000000         0.000000000         0.000000000
     0.000000000         0.000000000         0.500000000
     0.000000000         0.500000000         0.000000000
     0.000000000         0.500000000         0.500000000
     0.500000000         0.000000000         0.000000000
     0.500000000         0.000000000         0.500000000
     0.500000000         0.500000000         0.000000000
     0.500000000         0.500000000         0.500000000
     0.250000000         0.000000000         0.375000000
     0.250000000         0.000000000         0.875000000
     0.250000000         0.500000000         0.375000000
     0.250000000         0.500000000         0.875000000
     0.750000000         0.000000000         0.375000000
     0.750000000         0.000000000         0.875000000
     0.750000000         0.500000000         0.375000000
     0.750000000         0.500000000         0.875000000
     0.250000000         0.250000000         0.250000000
     0.250000000         0.250000000         0.750000000
     0.250000000         0.750000000         0.250000000
     0.250000000         0.750000000         0.750000000
     0.750000000         0.250000000         0.250000000
     0.750000000         0.250000000         0.750000000
     0.750000000         0.750000000         0.250000000
     0.750000000         0.750000000         0.750000000
     0.000000000         0.250000000         0.375000000
     0.000000000         0.250000000         0.875000000
     0.000000000         0.750000000         0.375000000
     0.000000000         0.750000000         0.875000000
     0.500000000         0.250000000         0.375000000
     0.500000000         0.250000000         0.875000000
     0.500000000         0.750000000         0.375000000
     0.500000000         0.750000000         0.875000000
     0.000000000         0.000000000         0.250000000
     0.000000000         0.000000000         0.750000000
     0.000000000         0.500000000         0.250000000
     0.000000000         0.500000000         0.750000000
     0.500000000         0.000000000         0.250000000
     0.500000000         0.000000000         0.750000000
     0.500000000         0.500000000         0.250000000
     0.500000000         0.500000000         0.750000000
     0.250000000         0.000000000         0.125000000
     0.250000000         0.000000000         0.625000000
     0.250000000         0.500000000         0.125000000
     0.250000000         0.500000000         0.625000000
     0.750000000         0.000000000         0.125000000
     0.750000000         0.000000000         0.625000000
     0.750000000         0.500000000         0.125000000
     0.750000000         0.500000000         0.625000000
     0.250000000         0.250000000         0.000000000
     0.250000000         0.250000000         0.500000000
     0.250000000         0.750000000         0.000000000
     0.250000000         0.750000000         0.500000000
     0.750000000         0.250000000         0.000000000
     0.750000000         0.250000000         0.500000000
     0.750000000         0.750000000         0.000000000
     0.750000000         0.750000000         0.500000000
     0.375000000         0.132499993         0.187500000
     0.375000000         0.132499993         0.687500000
     0.375000000         0.632499993         0.187500000
     0.375000000         0.632499993         0.687500000
     0.875000000         0.132499993         0.187500000
     0.875000000         0.132499993         0.687500000
     0.875000000         0.632499993         0.187500000
     0.875000000         0.632499993         0.687500000
     0.125000000         0.382499993         0.437500000
     0.125000000         0.382499993         0.937500000
     0.125000000         0.882499993         0.437500000
     0.125000000         0.882499993         0.937500000
     0.625000000         0.382499993         0.437500000
     0.625000000         0.382499993         0.937500000
     0.625000000         0.882499993         0.437500000
     0.625000000         0.882499993         0.937500000
     0.125000000         0.367500007         0.187500000
     0.125000000         0.367500007         0.687500000
     0.125000000         0.867500007         0.187500000
     0.125000000         0.867500007         0.687500000
     0.625000000         0.367500007         0.187500000
     0.625000000         0.367500007         0.687500000
     0.625000000         0.867500007         0.187500000
     0.625000000         0.867500007         0.687500000
     0.375000000         0.117500000         0.437500000
     0.375000000         0.117500000         0.937500000
     0.375000000         0.617500007         0.437500000
     0.375000000         0.617500007         0.937500000
     0.875000000         0.117500000         0.437500000
     0.875000000         0.117500000         0.937500000
     0.875000000         0.617500007         0.437500000
     0.875000000         0.617500007         0.937500000
     0.117500000         0.125000000         0.062500000
     0.117500000         0.125000000         0.562500000
     0.117500000         0.625000000         0.062500000
     0.117500000         0.625000000         0.562500000
     0.617500007         0.125000000         0.062500000
     0.617500007         0.125000000         0.562500000
     0.617500007         0.625000000         0.062500000
     0.617500007         0.625000000         0.562500000
     0.382499993         0.375000000         0.062500000
     0.382499993         0.375000000         0.562500000
     0.382499993         0.875000000         0.062500000
     0.382499993         0.875000000         0.562500000
     0.882499993         0.375000000         0.062500000
     0.882499993         0.375000000         0.562500000
     0.882499993         0.875000000         0.062500000
     0.882499993         0.875000000         0.562500000
     0.367500007         0.375000000         0.312500000
     0.367500007         0.375000000         0.812500000
     0.367500007         0.875000000         0.312500000
     0.367500007         0.875000000         0.812500000
     0.867500007         0.375000000         0.312500000
     0.867500007         0.375000000         0.812500000
     0.867500007         0.875000000         0.312500000
     0.867500007         0.875000000         0.812500000
     0.132499993         0.125000000         0.312500000
     0.132499993         0.125000000         0.812500000
     0.132499993         0.625000000         0.312500000
     0.132499993         0.625000000         0.812500000
     0.632499993         0.125000000         0.312500000
     0.632499993         0.125000000         0.812500000
     0.632499993         0.625000000         0.312500000
     0.632499993         0.625000000         0.812500000
