Ag C  H  S 
 1.0000000000000000
    33.9299999999999997    0.0000000000000000    0.0000000000000000
     0.0000000000000000   33.9299999999999997    0.0000000000000000
     0.0000000000000000    0.0000000000000000   50.0000000000000000
 Ag  C   H   S  
 1134   4  10   1
Cartesian
  0.9424999999999990  0.9424999999999990 18.4024999999999999
  2.8274999999999988  2.8274999999999988 18.4024999999999999
  0.9424999999999990  2.8274999999999988 20.2875000000000014
  2.8274999999999988  0.9424999999999990 20.2875000000000014
  0.9424999999999990  0.9424999999999990 22.1724999999999994
  2.8274999999999988  2.8274999999999988 22.1724999999999994
  0.9424999999999990  2.8274999999999988 24.0575000000000010
  2.8274999999999988  0.9424999999999990 24.0575000000000010
  0.9424999999999990  0.9424999999999990 25.9424999999999990
  2.8274999999999988  2.8274999999999988 25.9424999999999990
  0.9424999999999990  2.8274999999999988 27.8275000000000006
  2.8274999999999988  0.9424999999999990 27.8275000000000006
  0.9424999999999990  0.9424999999999990 29.7125000000000021
  2.8274999999999988  2.8274999999999988 29.7125000000000021
  0.9424999999999990  4.7124999999999986 18.4024999999999999
  2.8274999999999988  6.5974999999999993 18.4024999999999999
  0.9424999999999990  6.5974999999999993 20.2875000000000014
  2.8274999999999988  4.7124999999999986 20.2875000000000014
  0.9424999999999990  4.7124999999999986 22.1724999999999994
  2.8274999999999988  6.5974999999999993 22.1724999999999994
  0.9424999999999990  6.5974999999999993 24.0575000000000010
  2.8274999999999988  4.7124999999999986 24.0575000000000010
  0.9424999999999990  4.7124999999999986 25.9424999999999990
  2.8274999999999988  6.5974999999999993 25.9424999999999990
  0.9424999999999990  6.5974999999999993 27.8275000000000006
  2.8274999999999988  4.7124999999999986 27.8275000000000006
  0.9424999999999990  4.7124999999999986 29.7125000000000021
  2.8274999999999988  6.5974999999999993 29.7125000000000021
  0.9424999999999990  8.4824999999999982 18.4024999999999999
  2.8274999999999988 10.3674999999999997 18.4024999999999999
  0.9424999999999990 10.3674999999999997 20.2875000000000014
  2.8274999999999988  8.4824999999999982 20.2875000000000014
  0.9424999999999990  8.4824999999999982 22.1724999999999994
  2.8274999999999988 10.3674999999999997 22.1724999999999994
  0.9424999999999990 10.3674999999999997 24.0575000000000010
  2.8274999999999988  8.4824999999999982 24.0575000000000010
  0.9424999999999990  8.4824999999999982 25.9424999999999990
  2.8274999999999988 10.3674999999999997 25.9424999999999990
  0.9424999999999990 10.3674999999999997 27.8275000000000006
  2.8274999999999988  8.4824999999999982 27.8275000000000006
  0.9424999999999990  8.4824999999999982 29.7125000000000021
  2.8274999999999988 10.3674999999999997 29.7125000000000021
  0.9424999999999990 12.2524999999999995 18.4024999999999999
  2.8274999999999988 14.1374999999999993 18.4024999999999999
  0.9424999999999990 14.1374999999999993 20.2875000000000014
  2.8274999999999988 12.2524999999999995 20.2875000000000014
  0.9424999999999990 12.2524999999999995 22.1724999999999994
  2.8274999999999988 14.1374999999999993 22.1724999999999994
  0.9424999999999990 14.1374999999999993 24.0575000000000010
  2.8274999999999988 12.2524999999999995 24.0575000000000010
  0.9424999999999990 12.2524999999999995 25.9424999999999990
  2.8274999999999988 14.1374999999999993 25.9424999999999990
  0.9424999999999990 14.1374999999999993 27.8275000000000006
  2.8274999999999988 12.2524999999999995 27.8275000000000006
  0.9424999999999990 12.2524999999999995 29.7125000000000021
  2.8274999999999988 14.1374999999999993 29.7125000000000021
  0.9424999999999990 16.0225000000000009 18.4024999999999999
  2.8274999999999988 17.9074999999999989 18.4024999999999999
  0.9424999999999990 17.9074999999999989 20.2875000000000014
  2.8274999999999988 16.0225000000000009 20.2875000000000014
  0.9424999999999990 16.0225000000000009 22.1724999999999994
  2.8274999999999988 17.9074999999999989 22.1724999999999994
  0.9424999999999990 17.9074999999999989 24.0575000000000010
  2.8274999999999988 16.0225000000000009 24.0575000000000010
  0.9424999999999990 16.0225000000000009 25.9424999999999990
  2.8274999999999988 17.9074999999999989 25.9424999999999990
  0.9424999999999990 17.9074999999999989 27.8275000000000006
  2.8274999999999988 16.0225000000000009 27.8275000000000006
  0.9424999999999990 16.0225000000000009 29.7125000000000021
  2.8274999999999988 17.9074999999999989 29.7125000000000021
  0.9424999999999990 19.7925000000000004 18.4024999999999999
  2.8274999999999988 21.6775000000000020 18.4024999999999999
  0.9424999999999990 21.6775000000000020 20.2875000000000014
  2.8274999999999988 19.7925000000000004 20.2875000000000014
  0.9424999999999990 19.7925000000000004 22.1724999999999994
  2.8274999999999988 21.6775000000000020 22.1724999999999994
  0.9424999999999990 21.6775000000000020 24.0575000000000010
  2.8274999999999988 19.7925000000000004 24.0575000000000010
  0.9424999999999990 19.7925000000000004 25.9424999999999990
  2.8274999999999988 21.6775000000000020 25.9424999999999990
  0.9424999999999990 21.6775000000000020 27.8275000000000006
  2.8274999999999988 19.7925000000000004 27.8275000000000006
  0.9424999999999990 19.7925000000000004 29.7125000000000021
  2.8274999999999988 21.6775000000000020 29.7125000000000021
  0.9424999999999990 23.5625000000000000 18.4024999999999999
  2.8274999999999988 25.4475000000000016 18.4024999999999999
  0.9424999999999990 25.4475000000000016 20.2875000000000014
  2.8274999999999988 23.5625000000000000 20.2875000000000014
  0.9424999999999990 23.5625000000000000 22.1724999999999994
  2.8274999999999988 25.4475000000000016 22.1724999999999994
  0.9424999999999990 25.4475000000000016 24.0575000000000010
  2.8274999999999988 23.5625000000000000 24.0575000000000010
  0.9424999999999990 23.5625000000000000 25.9424999999999990
  2.8274999999999988 25.4475000000000016 25.9424999999999990
  0.9424999999999990 25.4475000000000016 27.8275000000000006
  2.8274999999999988 23.5625000000000000 27.8275000000000006
  0.9424999999999990 23.5625000000000000 29.7125000000000021
  2.8274999999999988 25.4475000000000016 29.7125000000000021
  0.9424999999999990 27.3324999999999996 18.4024999999999999
  2.8274999999999988 29.2175000000000011 18.4024999999999999
  0.9424999999999990 29.2175000000000011 20.2875000000000014
  2.8274999999999988 27.3324999999999996 20.2875000000000014
  0.9424999999999990 27.3324999999999996 22.1724999999999994
  2.8274999999999988 29.2175000000000011 22.1724999999999994
  0.9424999999999990 29.2175000000000011 24.0575000000000010
  2.8274999999999988 27.3324999999999996 24.0575000000000010
  0.9424999999999990 27.3324999999999996 25.9424999999999990
  2.8274999999999988 29.2175000000000011 25.9424999999999990
  0.9424999999999990 29.2175000000000011 27.8275000000000006
  2.8274999999999988 27.3324999999999996 27.8275000000000006
  0.9424999999999990 27.3324999999999996 29.7125000000000021
  2.8274999999999988 29.2175000000000011 29.7125000000000021
  0.9424999999999990 31.1024999999999991 18.4024999999999999
  2.8274999999999988 32.9874999999999972 18.4024999999999999
  0.9424999999999990 32.9874999999999972 20.2875000000000014
  2.8274999999999988 31.1024999999999991 20.2875000000000014
  0.9424999999999990 31.1024999999999991 22.1724999999999994
  2.8274999999999988 32.9874999999999972 22.1724999999999994
  0.9424999999999990 32.9874999999999972 24.0575000000000010
  2.8274999999999988 31.1024999999999991 24.0575000000000010
  0.9424999999999990 31.1024999999999991 25.9424999999999990
  2.8274999999999988 32.9874999999999972 25.9424999999999990
  0.9424999999999990 32.9874999999999972 27.8275000000000006
  2.8274999999999988 31.1024999999999991 27.8275000000000006
  0.9424999999999990 31.1024999999999991 29.7125000000000021
  2.8274999999999988 32.9874999999999972 29.7125000000000021
  4.7124999999999986  0.9424999999999990 18.4024999999999999
  6.5974999999999993  2.8274999999999988 18.4024999999999999
  4.7124999999999986  2.8274999999999988 20.2875000000000014
  6.5974999999999993  0.9424999999999990 20.2875000000000014
  4.7124999999999986  0.9424999999999990 22.1724999999999994
  6.5974999999999993  2.8274999999999988 22.1724999999999994
  4.7124999999999986  2.8274999999999988 24.0575000000000010
  6.5974999999999993  0.9424999999999990 24.0575000000000010
  4.7124999999999986  0.9424999999999990 25.9424999999999990
  6.5974999999999993  2.8274999999999988 25.9424999999999990
  4.7124999999999986  2.8274999999999988 27.8275000000000006
  6.5974999999999993  0.9424999999999990 27.8275000000000006
  4.7124999999999986  0.9424999999999990 29.7125000000000021
  6.5974999999999993  2.8274999999999988 29.7125000000000021
  4.7124999999999986  4.7124999999999986 18.4024999999999999
  6.5974999999999993  6.5974999999999993 18.4024999999999999
  4.7124999999999986  6.5974999999999993 20.2875000000000014
  6.5974999999999993  4.7124999999999986 20.2875000000000014
  4.7124999999999986  4.7124999999999986 22.1724999999999994
  6.5974999999999993  6.5974999999999993 22.1724999999999994
  4.7124999999999986  6.5974999999999993 24.0575000000000010
  6.5974999999999993  4.7124999999999986 24.0575000000000010
  4.7124999999999986  4.7124999999999986 25.9424999999999990
  6.5974999999999993  6.5974999999999993 25.9424999999999990
  4.7124999999999986  6.5974999999999993 27.8275000000000006
  6.5974999999999993  4.7124999999999986 27.8275000000000006
  4.7124999999999986  4.7124999999999986 29.7125000000000021
  6.5974999999999993  6.5974999999999993 29.7125000000000021
  4.7124999999999986  8.4824999999999982 18.4024999999999999
  6.5974999999999993 10.3674999999999997 18.4024999999999999
  4.7124999999999986 10.3674999999999997 20.2875000000000014
  6.5974999999999993  8.4824999999999982 20.2875000000000014
  4.7124999999999986  8.4824999999999982 22.1724999999999994
  6.5974999999999993 10.3674999999999997 22.1724999999999994
  4.7124999999999986 10.3674999999999997 24.0575000000000010
  6.5974999999999993  8.4824999999999982 24.0575000000000010
  4.7124999999999986  8.4824999999999982 25.9424999999999990
  6.5974999999999993 10.3674999999999997 25.9424999999999990
  4.7124999999999986 10.3674999999999997 27.8275000000000006
  6.5974999999999993  8.4824999999999982 27.8275000000000006
  4.7124999999999986  8.4824999999999982 29.7125000000000021
  6.5974999999999993 10.3674999999999997 29.7125000000000021
  4.7124999999999986 12.2524999999999995 18.4024999999999999
  6.5974999999999993 14.1374999999999993 18.4024999999999999
  4.7124999999999986 14.1374999999999993 20.2875000000000014
  6.5974999999999993 12.2524999999999995 20.2875000000000014
  4.7124999999999986 12.2524999999999995 22.1724999999999994
  6.5974999999999993 14.1374999999999993 22.1724999999999994
  4.7124999999999986 14.1374999999999993 24.0575000000000010
  6.5974999999999993 12.2524999999999995 24.0575000000000010
  4.7124999999999986 12.2524999999999995 25.9424999999999990
  6.5974999999999993 14.1374999999999993 25.9424999999999990
  4.7124999999999986 14.1374999999999993 27.8275000000000006
  6.5974999999999993 12.2524999999999995 27.8275000000000006
  4.7124999999999986 12.2524999999999995 29.7125000000000021
  6.5974999999999993 14.1374999999999993 29.7125000000000021
  4.7124999999999986 16.0225000000000009 18.4024999999999999
  6.5974999999999993 17.9074999999999989 18.4024999999999999
  4.7124999999999986 17.9074999999999989 20.2875000000000014
  6.5974999999999993 16.0225000000000009 20.2875000000000014
  4.7124999999999986 16.0225000000000009 22.1724999999999994
  6.5974999999999993 17.9074999999999989 22.1724999999999994
  4.7124999999999986 17.9074999999999989 24.0575000000000010
  6.5974999999999993 16.0225000000000009 24.0575000000000010
  4.7124999999999986 16.0225000000000009 25.9424999999999990
  6.5974999999999993 17.9074999999999989 25.9424999999999990
  4.7124999999999986 17.9074999999999989 27.8275000000000006
  6.5974999999999993 16.0225000000000009 27.8275000000000006
  4.7124999999999986 16.0225000000000009 29.7125000000000021
  6.5974999999999993 17.9074999999999989 29.7125000000000021
  4.7124999999999986 19.7925000000000004 18.4024999999999999
  6.5974999999999993 21.6775000000000020 18.4024999999999999
  4.7124999999999986 21.6775000000000020 20.2875000000000014
  6.5974999999999993 19.7925000000000004 20.2875000000000014
  4.7124999999999986 19.7925000000000004 22.1724999999999994
  6.5974999999999993 21.6775000000000020 22.1724999999999994
  4.7124999999999986 21.6775000000000020 24.0575000000000010
  6.5974999999999993 19.7925000000000004 24.0575000000000010
  4.7124999999999986 19.7925000000000004 25.9424999999999990
  6.5974999999999993 21.6775000000000020 25.9424999999999990
  4.7124999999999986 21.6775000000000020 27.8275000000000006
  6.5974999999999993 19.7925000000000004 27.8275000000000006
  4.7124999999999986 19.7925000000000004 29.7125000000000021
  6.5974999999999993 21.6775000000000020 29.7125000000000021
  4.7124999999999986 23.5625000000000000 18.4024999999999999
  6.5974999999999993 25.4475000000000016 18.4024999999999999
  4.7124999999999986 25.4475000000000016 20.2875000000000014
  6.5974999999999993 23.5625000000000000 20.2875000000000014
  4.7124999999999986 23.5625000000000000 22.1724999999999994
  6.5974999999999993 25.4475000000000016 22.1724999999999994
  4.7124999999999986 25.4475000000000016 24.0575000000000010
  6.5974999999999993 23.5625000000000000 24.0575000000000010
  4.7124999999999986 23.5625000000000000 25.9424999999999990
  6.5974999999999993 25.4475000000000016 25.9424999999999990
  4.7124999999999986 25.4475000000000016 27.8275000000000006
  6.5974999999999993 23.5625000000000000 27.8275000000000006
  4.7124999999999986 23.5625000000000000 29.7125000000000021
  6.5974999999999993 25.4475000000000016 29.7125000000000021
  4.7124999999999986 27.3324999999999996 18.4024999999999999
  6.5974999999999993 29.2175000000000011 18.4024999999999999
  4.7124999999999986 29.2175000000000011 20.2875000000000014
  6.5974999999999993 27.3324999999999996 20.2875000000000014
  4.7124999999999986 27.3324999999999996 22.1724999999999994
  6.5974999999999993 29.2175000000000011 22.1724999999999994
  4.7124999999999986 29.2175000000000011 24.0575000000000010
  6.5974999999999993 27.3324999999999996 24.0575000000000010
  4.7124999999999986 27.3324999999999996 25.9424999999999990
  6.5974999999999993 29.2175000000000011 25.9424999999999990
  4.7124999999999986 29.2175000000000011 27.8275000000000006
  6.5974999999999993 27.3324999999999996 27.8275000000000006
  4.7124999999999986 27.3324999999999996 29.7125000000000021
  6.5974999999999993 29.2175000000000011 29.7125000000000021
  4.7124999999999986 31.1024999999999991 18.4024999999999999
  6.5974999999999993 32.9874999999999972 18.4024999999999999
  4.7124999999999986 32.9874999999999972 20.2875000000000014
  6.5974999999999993 31.1024999999999991 20.2875000000000014
  4.7124999999999986 31.1024999999999991 22.1724999999999994
  6.5974999999999993 32.9874999999999972 22.1724999999999994
  4.7124999999999986 32.9874999999999972 24.0575000000000010
  6.5974999999999993 31.1024999999999991 24.0575000000000010
  4.7124999999999986 31.1024999999999991 25.9424999999999990
  6.5974999999999993 32.9874999999999972 25.9424999999999990
  4.7124999999999986 32.9874999999999972 27.8275000000000006
  6.5974999999999993 31.1024999999999991 27.8275000000000006
  4.7124999999999986 31.1024999999999991 29.7125000000000021
  6.5974999999999993 32.9874999999999972 29.7125000000000021
  8.4824999999999982  0.9424999999999990 18.4024999999999999
 10.3674999999999997  2.8274999999999988 18.4024999999999999
  8.4824999999999982  2.8274999999999988 20.2875000000000014
 10.3674999999999997  0.9424999999999990 20.2875000000000014
  8.4824999999999982  0.9424999999999990 22.1724999999999994
 10.3674999999999997  2.8274999999999988 22.1724999999999994
  8.4824999999999982  2.8274999999999988 24.0575000000000010
 10.3674999999999997  0.9424999999999990 24.0575000000000010
  8.4824999999999982  0.9424999999999990 25.9424999999999990
 10.3674999999999997  2.8274999999999988 25.9424999999999990
  8.4824999999999982  2.8274999999999988 27.8275000000000006
 10.3674999999999997  0.9424999999999990 27.8275000000000006
  8.4824999999999982  0.9424999999999990 29.7125000000000021
 10.3674999999999997  2.8274999999999988 29.7125000000000021
  8.4824999999999982  4.7124999999999986 18.4024999999999999
 10.3674999999999997  6.5974999999999993 18.4024999999999999
  8.4824999999999982  6.5974999999999993 20.2875000000000014
 10.3674999999999997  4.7124999999999986 20.2875000000000014
  8.4824999999999982  4.7124999999999986 22.1724999999999994
 10.3674999999999997  6.5974999999999993 22.1724999999999994
  8.4824999999999982  6.5974999999999993 24.0575000000000010
 10.3674999999999997  4.7124999999999986 24.0575000000000010
  8.4824999999999982  4.7124999999999986 25.9424999999999990
 10.3674999999999997  6.5974999999999993 25.9424999999999990
  8.4824999999999982  6.5974999999999993 27.8275000000000006
 10.3674999999999997  4.7124999999999986 27.8275000000000006
  8.4824999999999982  4.7124999999999986 29.7125000000000021
 10.3674999999999997  6.5974999999999993 29.7125000000000021
  8.4824999999999982  8.4824999999999982 18.4024999999999999
 10.3674999999999997 10.3674999999999997 18.4024999999999999
  8.4824999999999982 10.3674999999999997 20.2875000000000014
 10.3674999999999997  8.4824999999999982 20.2875000000000014
  8.4824999999999982  8.4824999999999982 22.1724999999999994
 10.3674999999999997 10.3674999999999997 22.1724999999999994
  8.4824999999999982 10.3674999999999997 24.0575000000000010
 10.3674999999999997  8.4824999999999982 24.0575000000000010
  8.4824999999999982  8.4824999999999982 25.9424999999999990
 10.3674999999999997 10.3674999999999997 25.9424999999999990
  8.4824999999999982 10.3674999999999997 27.8275000000000006
 10.3674999999999997  8.4824999999999982 27.8275000000000006
  8.4824999999999982  8.4824999999999982 29.7125000000000021
 10.3674999999999997 10.3674999999999997 29.7125000000000021
  8.4824999999999982 12.2524999999999995 18.4024999999999999
 10.3674999999999997 14.1374999999999993 18.4024999999999999
  8.4824999999999982 14.1374999999999993 20.2875000000000014
 10.3674999999999997 12.2524999999999995 20.2875000000000014
  8.4824999999999982 12.2524999999999995 22.1724999999999994
 10.3674999999999997 14.1374999999999993 22.1724999999999994
  8.4824999999999982 14.1374999999999993 24.0575000000000010
 10.3674999999999997 12.2524999999999995 24.0575000000000010
  8.4824999999999982 12.2524999999999995 25.9424999999999990
 10.3674999999999997 14.1374999999999993 25.9424999999999990
  8.4824999999999982 14.1374999999999993 27.8275000000000006
 10.3674999999999997 12.2524999999999995 27.8275000000000006
  8.4824999999999982 12.2524999999999995 29.7125000000000021
 10.3674999999999997 14.1374999999999993 29.7125000000000021
  8.4824999999999982 16.0225000000000009 18.4024999999999999
 10.3674999999999997 17.9074999999999989 18.4024999999999999
  8.4824999999999982 17.9074999999999989 20.2875000000000014
 10.3674999999999997 16.0225000000000009 20.2875000000000014
  8.4824999999999982 16.0225000000000009 22.1724999999999994
 10.3674999999999997 17.9074999999999989 22.1724999999999994
  8.4824999999999982 17.9074999999999989 24.0575000000000010
 10.3674999999999997 16.0225000000000009 24.0575000000000010
  8.4824999999999982 16.0225000000000009 25.9424999999999990
 10.3674999999999997 17.9074999999999989 25.9424999999999990
  8.4824999999999982 17.9074999999999989 27.8275000000000006
 10.3674999999999997 16.0225000000000009 27.8275000000000006
  8.4824999999999982 16.0225000000000009 29.7125000000000021
 10.3674999999999997 17.9074999999999989 29.7125000000000021
  8.4824999999999982 19.7925000000000004 18.4024999999999999
 10.3674999999999997 21.6775000000000020 18.4024999999999999
  8.4824999999999982 21.6775000000000020 20.2875000000000014
 10.3674999999999997 19.7925000000000004 20.2875000000000014
  8.4824999999999982 19.7925000000000004 22.1724999999999994
 10.3674999999999997 21.6775000000000020 22.1724999999999994
  8.4824999999999982 21.6775000000000020 24.0575000000000010
 10.3674999999999997 19.7925000000000004 24.0575000000000010
  8.4824999999999982 19.7925000000000004 25.9424999999999990
 10.3674999999999997 21.6775000000000020 25.9424999999999990
  8.4824999999999982 21.6775000000000020 27.8275000000000006
 10.3674999999999997 19.7925000000000004 27.8275000000000006
  8.4824999999999982 19.7925000000000004 29.7125000000000021
 10.3674999999999997 21.6775000000000020 29.7125000000000021
  8.4824999999999982 23.5625000000000000 18.4024999999999999
 10.3674999999999997 25.4475000000000016 18.4024999999999999
  8.4824999999999982 25.4475000000000016 20.2875000000000014
 10.3674999999999997 23.5625000000000000 20.2875000000000014
  8.4824999999999982 23.5625000000000000 22.1724999999999994
 10.3674999999999997 25.4475000000000016 22.1724999999999994
  8.4824999999999982 25.4475000000000016 24.0575000000000010
 10.3674999999999997 23.5625000000000000 24.0575000000000010
  8.4824999999999982 23.5625000000000000 25.9424999999999990
 10.3674999999999997 25.4475000000000016 25.9424999999999990
  8.4824999999999982 25.4475000000000016 27.8275000000000006
 10.3674999999999997 23.5625000000000000 27.8275000000000006
  8.4824999999999982 23.5625000000000000 29.7125000000000021
 10.3674999999999997 25.4475000000000016 29.7125000000000021
  8.4824999999999982 27.3324999999999996 18.4024999999999999
 10.3674999999999997 29.2175000000000011 18.4024999999999999
  8.4824999999999982 29.2175000000000011 20.2875000000000014
 10.3674999999999997 27.3324999999999996 20.2875000000000014
  8.4824999999999982 27.3324999999999996 22.1724999999999994
 10.3674999999999997 29.2175000000000011 22.1724999999999994
  8.4824999999999982 29.2175000000000011 24.0575000000000010
 10.3674999999999997 27.3324999999999996 24.0575000000000010
  8.4824999999999982 27.3324999999999996 25.9424999999999990
 10.3674999999999997 29.2175000000000011 25.9424999999999990
  8.4824999999999982 29.2175000000000011 27.8275000000000006
 10.3674999999999997 27.3324999999999996 27.8275000000000006
  8.4824999999999982 27.3324999999999996 29.7125000000000021
 10.3674999999999997 29.2175000000000011 29.7125000000000021
  8.4824999999999982 31.1024999999999991 18.4024999999999999
 10.3674999999999997 32.9874999999999972 18.4024999999999999
  8.4824999999999982 32.9874999999999972 20.2875000000000014
 10.3674999999999997 31.1024999999999991 20.2875000000000014
  8.4824999999999982 31.1024999999999991 22.1724999999999994
 10.3674999999999997 32.9874999999999972 22.1724999999999994
  8.4824999999999982 32.9874999999999972 24.0575000000000010
 10.3674999999999997 31.1024999999999991 24.0575000000000010
  8.4824999999999982 31.1024999999999991 25.9424999999999990
 10.3674999999999997 32.9874999999999972 25.9424999999999990
  8.4824999999999982 32.9874999999999972 27.8275000000000006
 10.3674999999999997 31.1024999999999991 27.8275000000000006
  8.4824999999999982 31.1024999999999991 29.7125000000000021
 10.3674999999999997 32.9874999999999972 29.7125000000000021
 12.2524999999999995  0.9424999999999990 18.4024999999999999
 14.1374999999999993  2.8274999999999988 18.4024999999999999
 12.2524999999999995  2.8274999999999988 20.2875000000000014
 14.1374999999999993  0.9424999999999990 20.2875000000000014
 12.2524999999999995  0.9424999999999990 22.1724999999999994
 14.1374999999999993  2.8274999999999988 22.1724999999999994
 12.2524999999999995  2.8274999999999988 24.0575000000000010
 14.1374999999999993  0.9424999999999990 24.0575000000000010
 12.2524999999999995  0.9424999999999990 25.9424999999999990
 14.1374999999999993  2.8274999999999988 25.9424999999999990
 12.2524999999999995  2.8274999999999988 27.8275000000000006
 14.1374999999999993  0.9424999999999990 27.8275000000000006
 12.2524999999999995  0.9424999999999990 29.7125000000000021
 14.1374999999999993  2.8274999999999988 29.7125000000000021
 12.2524999999999995  4.7124999999999986 18.4024999999999999
 14.1374999999999993  6.5974999999999993 18.4024999999999999
 12.2524999999999995  6.5974999999999993 20.2875000000000014
 14.1374999999999993  4.7124999999999986 20.2875000000000014
 12.2524999999999995  4.7124999999999986 22.1724999999999994
 14.1374999999999993  6.5974999999999993 22.1724999999999994
 12.2524999999999995  6.5974999999999993 24.0575000000000010
 14.1374999999999993  4.7124999999999986 24.0575000000000010
 12.2524999999999995  4.7124999999999986 25.9424999999999990
 14.1374999999999993  6.5974999999999993 25.9424999999999990
 12.2524999999999995  6.5974999999999993 27.8275000000000006
 14.1374999999999993  4.7124999999999986 27.8275000000000006
 12.2524999999999995  4.7124999999999986 29.7125000000000021
 14.1374999999999993  6.5974999999999993 29.7125000000000021
 12.2524999999999995  8.4824999999999982 18.4024999999999999
 14.1374999999999993 10.3674999999999997 18.4024999999999999
 12.2524999999999995 10.3674999999999997 20.2875000000000014
 14.1374999999999993  8.4824999999999982 20.2875000000000014
 12.2524999999999995  8.4824999999999982 22.1724999999999994
 14.1374999999999993 10.3674999999999997 22.1724999999999994
 12.2524999999999995 10.3674999999999997 24.0575000000000010
 14.1374999999999993  8.4824999999999982 24.0575000000000010
 12.2524999999999995  8.4824999999999982 25.9424999999999990
 14.1374999999999993 10.3674999999999997 25.9424999999999990
 12.2524999999999995 10.3674999999999997 27.8275000000000006
 14.1374999999999993  8.4824999999999982 27.8275000000000006
 12.2524999999999995  8.4824999999999982 29.7125000000000021
 14.1374999999999993 10.3674999999999997 29.7125000000000021
 12.2524999999999995 12.2524999999999995 18.4024999999999999
 14.1374999999999993 14.1374999999999993 18.4024999999999999
 12.2524999999999995 14.1374999999999993 20.2875000000000014
 14.1374999999999993 12.2524999999999995 20.2875000000000014
 12.2524999999999995 12.2524999999999995 22.1724999999999994
 14.1374999999999993 14.1374999999999993 22.1724999999999994
 12.2524999999999995 14.1374999999999993 24.0575000000000010
 14.1374999999999993 12.2524999999999995 24.0575000000000010
 12.2524999999999995 12.2524999999999995 25.9424999999999990
 14.1374999999999993 14.1374999999999993 25.9424999999999990
 12.2524999999999995 14.1374999999999993 27.8275000000000006
 14.1374999999999993 12.2524999999999995 27.8275000000000006
 12.2524999999999995 12.2524999999999995 29.7125000000000021
 14.1374999999999993 14.1374999999999993 29.7125000000000021
 12.2524999999999995 16.0225000000000009 18.4024999999999999
 14.1374999999999993 17.9074999999999989 18.4024999999999999
 12.2524999999999995 17.9074999999999989 20.2875000000000014
 14.1374999999999993 16.0225000000000009 20.2875000000000014
 12.2524999999999995 16.0225000000000009 22.1724999999999994
 14.1374999999999993 17.9074999999999989 22.1724999999999994
 12.2524999999999995 17.9074999999999989 24.0575000000000010
 14.1374999999999993 16.0225000000000009 24.0575000000000010
 12.2524999999999995 16.0225000000000009 25.9424999999999990
 14.1374999999999993 17.9074999999999989 25.9424999999999990
 12.2524999999999995 17.9074999999999989 27.8275000000000006
 14.1374999999999993 16.0225000000000009 27.8275000000000006
 12.2524999999999995 16.0225000000000009 29.7125000000000021
 14.1374999999999993 17.9074999999999989 29.7125000000000021
 12.2524999999999995 19.7925000000000004 18.4024999999999999
 14.1374999999999993 21.6775000000000020 18.4024999999999999
 12.2524999999999995 21.6775000000000020 20.2875000000000014
 14.1374999999999993 19.7925000000000004 20.2875000000000014
 12.2524999999999995 19.7925000000000004 22.1724999999999994
 14.1374999999999993 21.6775000000000020 22.1724999999999994
 12.2524999999999995 21.6775000000000020 24.0575000000000010
 14.1374999999999993 19.7925000000000004 24.0575000000000010
 12.2524999999999995 19.7925000000000004 25.9424999999999990
 14.1374999999999993 21.6775000000000020 25.9424999999999990
 12.2524999999999995 21.6775000000000020 27.8275000000000006
 14.1374999999999993 19.7925000000000004 27.8275000000000006
 12.2524999999999995 19.7925000000000004 29.7125000000000021
 14.1374999999999993 21.6775000000000020 29.7125000000000021
 12.2524999999999995 23.5625000000000000 18.4024999999999999
 14.1374999999999993 25.4475000000000016 18.4024999999999999
 12.2524999999999995 25.4475000000000016 20.2875000000000014
 14.1374999999999993 23.5625000000000000 20.2875000000000014
 12.2524999999999995 23.5625000000000000 22.1724999999999994
 14.1374999999999993 25.4475000000000016 22.1724999999999994
 12.2524999999999995 25.4475000000000016 24.0575000000000010
 14.1374999999999993 23.5625000000000000 24.0575000000000010
 12.2524999999999995 23.5625000000000000 25.9424999999999990
 14.1374999999999993 25.4475000000000016 25.9424999999999990
 12.2524999999999995 25.4475000000000016 27.8275000000000006
 14.1374999999999993 23.5625000000000000 27.8275000000000006
 12.2524999999999995 23.5625000000000000 29.7125000000000021
 14.1374999999999993 25.4475000000000016 29.7125000000000021
 12.2524999999999995 27.3324999999999996 18.4024999999999999
 14.1374999999999993 29.2175000000000011 18.4024999999999999
 12.2524999999999995 29.2175000000000011 20.2875000000000014
 14.1374999999999993 27.3324999999999996 20.2875000000000014
 12.2524999999999995 27.3324999999999996 22.1724999999999994
 14.1374999999999993 29.2175000000000011 22.1724999999999994
 12.2524999999999995 29.2175000000000011 24.0575000000000010
 14.1374999999999993 27.3324999999999996 24.0575000000000010
 12.2524999999999995 27.3324999999999996 25.9424999999999990
 14.1374999999999993 29.2175000000000011 25.9424999999999990
 12.2524999999999995 29.2175000000000011 27.8275000000000006